c *********************************
c * Circuit generated by BenCGen
c *
c * DaddaTreeMultiplier_8
c *
c * Ports with 1 gate(s): 2
c * Ports with 2 gate(s): 319
c * Ports with 3 gate(s): 16
c * Ports with 4 gate(s): 15
c * Ports with 5 gate(s): 14
c * Ports with 6 gate(s): 13
c * Ports with 7 gate(s): 12
c * Ports with 8 gate(s): 11
c * Ports with 9 gate(s): 10
c * Ports with 10 gate(s): 9
c * Ports with 11 gate(s): 8
c * Ports with 12 gate(s): 7
c * Ports with 13 gate(s): 6
c * Ports with 14 gate(s): 5
c * Ports with 15 gate(s): 4
c * Ports with 16 gate(s): 3
c * Ports with 17 gate(s): 2
c * Total gates: 456
c *********************************
p cnf 472 2275
1 34 0
-1 -34 0
1 -33 0
34 -33 0
-1 -34 33 0
35 33 -289 0
-35 33 289 0
35 -33 289 0
-35 -33 -289 0
35 -305 0
33 -305 0
-35 -33 305 0
36 43 -290 0
-36 43 290 0
36 -43 290 0
-36 -43 -290 0
36 -306 0
43 -306 0
-36 -43 306 0
231 51 -291 0
-231 51 291 0
231 -51 291 0
-231 -51 -291 0
231 -307 0
51 -307 0
-231 -51 307 0
232 233 -292 0
-232 233 292 0
232 -233 292 0
-232 -233 -292 0
232 -308 0
233 -308 0
-232 -233 308 0
234 238 -293 0
-234 238 293 0
234 -238 293 0
-234 -238 -293 0
234 -309 0
238 -309 0
-234 -238 309 0
239 243 -294 0
-239 243 294 0
239 -243 294 0
-239 -243 -294 0
239 -310 0
243 -310 0
-239 -243 310 0
244 248 -295 0
-244 248 295 0
244 -248 295 0
-244 -248 -295 0
244 -311 0
248 -311 0
-244 -248 311 0
249 253 -296 0
-249 253 296 0
249 -253 296 0
-249 -253 -296 0
249 -312 0
253 -312 0
-249 -253 312 0
254 258 -297 0
-254 258 297 0
254 -258 297 0
-254 -258 -297 0
254 -313 0
258 -313 0
-254 -258 313 0
259 263 -298 0
-259 263 298 0
259 -263 298 0
-259 -263 -298 0
259 -314 0
263 -314 0
-259 -263 314 0
264 268 -299 0
-264 268 299 0
264 -268 299 0
-264 -268 -299 0
264 -315 0
268 -315 0
-264 -268 315 0
269 273 -300 0
-269 273 300 0
269 -273 300 0
-269 -273 -300 0
269 -316 0
273 -316 0
-269 -273 316 0
274 278 -301 0
-274 278 301 0
274 -278 301 0
-274 -278 -301 0
274 -317 0
278 -317 0
-274 -278 317 0
279 283 -302 0
-279 283 302 0
279 -283 302 0
-279 -283 -302 0
279 -318 0
283 -318 0
-279 -283 318 0
284 98 -303 0
-284 98 303 0
284 -98 303 0
-284 -98 -303 0
284 -319 0
98 -319 0
-284 -98 319 0
33 33 -304 0
-33 33 304 0
33 -33 304 0
-33 -33 -304 0
33 -320 0
33 -320 0
-33 -33 320 0
33 -337 0
289 -337 0
-33 -289 337 0
33 -338 0
289 -338 0
290 -338 0
-33 -289 -290 338 0
305 -339 0
290 -339 0
-305 -290 339 0
33 -340 0
289 -340 0
290 -340 0
291 -340 0
-33 -289 -290 -291 340 0
305 -341 0
290 -341 0
291 -341 0
-305 -290 -291 341 0
306 -342 0
291 -342 0
-306 -291 342 0
33 -343 0
289 -343 0
290 -343 0
291 -343 0
292 -343 0
-33 -289 -290 -291 -292 343 0
305 -344 0
290 -344 0
291 -344 0
292 -344 0
-305 -290 -291 -292 344 0
306 -345 0
291 -345 0
292 -345 0
-306 -291 -292 345 0
307 -346 0
292 -346 0
-307 -292 346 0
33 -347 0
289 -347 0
290 -347 0
291 -347 0
292 -347 0
293 -347 0
-33 -289 -290 -291 -292 -293 347 0
305 -348 0
290 -348 0
291 -348 0
292 -348 0
293 -348 0
-305 -290 -291 -292 -293 348 0
306 -349 0
291 -349 0
292 -349 0
293 -349 0
-306 -291 -292 -293 349 0
307 -350 0
292 -350 0
293 -350 0
-307 -292 -293 350 0
308 -351 0
293 -351 0
-308 -293 351 0
33 -352 0
289 -352 0
290 -352 0
291 -352 0
292 -352 0
293 -352 0
294 -352 0
-33 -289 -290 -291 -292 -293 -294 352 0
305 -353 0
290 -353 0
291 -353 0
292 -353 0
293 -353 0
294 -353 0
-305 -290 -291 -292 -293 -294 353 0
306 -354 0
291 -354 0
292 -354 0
293 -354 0
294 -354 0
-306 -291 -292 -293 -294 354 0
307 -355 0
292 -355 0
293 -355 0
294 -355 0
-307 -292 -293 -294 355 0
308 -356 0
293 -356 0
294 -356 0
-308 -293 -294 356 0
309 -357 0
294 -357 0
-309 -294 357 0
33 -358 0
289 -358 0
290 -358 0
291 -358 0
292 -358 0
293 -358 0
294 -358 0
295 -358 0
-33 -289 -290 -291 -292 -293 -294 -295 358 0
305 -359 0
290 -359 0
291 -359 0
292 -359 0
293 -359 0
294 -359 0
295 -359 0
-305 -290 -291 -292 -293 -294 -295 359 0
306 -360 0
291 -360 0
292 -360 0
293 -360 0
294 -360 0
295 -360 0
-306 -291 -292 -293 -294 -295 360 0
307 -361 0
292 -361 0
293 -361 0
294 -361 0
295 -361 0
-307 -292 -293 -294 -295 361 0
308 -362 0
293 -362 0
294 -362 0
295 -362 0
-308 -293 -294 -295 362 0
309 -363 0
294 -363 0
295 -363 0
-309 -294 -295 363 0
310 -364 0
295 -364 0
-310 -295 364 0
33 -365 0
289 -365 0
290 -365 0
291 -365 0
292 -365 0
293 -365 0
294 -365 0
295 -365 0
296 -365 0
-33 -289 -290 -291 -292 -293 -294 -295 -296 365 0
305 -366 0
290 -366 0
291 -366 0
292 -366 0
293 -366 0
294 -366 0
295 -366 0
296 -366 0
-305 -290 -291 -292 -293 -294 -295 -296 366 0
306 -367 0
291 -367 0
292 -367 0
293 -367 0
294 -367 0
295 -367 0
296 -367 0
-306 -291 -292 -293 -294 -295 -296 367 0
307 -368 0
292 -368 0
293 -368 0
294 -368 0
295 -368 0
296 -368 0
-307 -292 -293 -294 -295 -296 368 0
308 -369 0
293 -369 0
294 -369 0
295 -369 0
296 -369 0
-308 -293 -294 -295 -296 369 0
309 -370 0
294 -370 0
295 -370 0
296 -370 0
-309 -294 -295 -296 370 0
310 -371 0
295 -371 0
296 -371 0
-310 -295 -296 371 0
311 -372 0
296 -372 0
-311 -296 372 0
33 -373 0
289 -373 0
290 -373 0
291 -373 0
292 -373 0
293 -373 0
294 -373 0
295 -373 0
296 -373 0
297 -373 0
-33 -289 -290 -291 -292 -293 -294 -295 -296 -297 373 0
305 -374 0
290 -374 0
291 -374 0
292 -374 0
293 -374 0
294 -374 0
295 -374 0
296 -374 0
297 -374 0
-305 -290 -291 -292 -293 -294 -295 -296 -297 374 0
306 -375 0
291 -375 0
292 -375 0
293 -375 0
294 -375 0
295 -375 0
296 -375 0
297 -375 0
-306 -291 -292 -293 -294 -295 -296 -297 375 0
307 -376 0
292 -376 0
293 -376 0
294 -376 0
295 -376 0
296 -376 0
297 -376 0
-307 -292 -293 -294 -295 -296 -297 376 0
308 -377 0
293 -377 0
294 -377 0
295 -377 0
296 -377 0
297 -377 0
-308 -293 -294 -295 -296 -297 377 0
309 -378 0
294 -378 0
295 -378 0
296 -378 0
297 -378 0
-309 -294 -295 -296 -297 378 0
310 -379 0
295 -379 0
296 -379 0
297 -379 0
-310 -295 -296 -297 379 0
311 -380 0
296 -380 0
297 -380 0
-311 -296 -297 380 0
312 -381 0
297 -381 0
-312 -297 381 0
33 -382 0
289 -382 0
290 -382 0
291 -382 0
292 -382 0
293 -382 0
294 -382 0
295 -382 0
296 -382 0
297 -382 0
298 -382 0
-33 -289 -290 -291 -292 -293 -294 -295 -296 -297 -298 382 0
305 -383 0
290 -383 0
291 -383 0
292 -383 0
293 -383 0
294 -383 0
295 -383 0
296 -383 0
297 -383 0
298 -383 0
-305 -290 -291 -292 -293 -294 -295 -296 -297 -298 383 0
306 -384 0
291 -384 0
292 -384 0
293 -384 0
294 -384 0
295 -384 0
296 -384 0
297 -384 0
298 -384 0
-306 -291 -292 -293 -294 -295 -296 -297 -298 384 0
307 -385 0
292 -385 0
293 -385 0
294 -385 0
295 -385 0
296 -385 0
297 -385 0
298 -385 0
-307 -292 -293 -294 -295 -296 -297 -298 385 0
308 -386 0
293 -386 0
294 -386 0
295 -386 0
296 -386 0
297 -386 0
298 -386 0
-308 -293 -294 -295 -296 -297 -298 386 0
309 -387 0
294 -387 0
295 -387 0
296 -387 0
297 -387 0
298 -387 0
-309 -294 -295 -296 -297 -298 387 0
310 -388 0
295 -388 0
296 -388 0
297 -388 0
298 -388 0
-310 -295 -296 -297 -298 388 0
311 -389 0
296 -389 0
297 -389 0
298 -389 0
-311 -296 -297 -298 389 0
312 -390 0
297 -390 0
298 -390 0
-312 -297 -298 390 0
313 -391 0
298 -391 0
-313 -298 391 0
33 -392 0
289 -392 0
290 -392 0
291 -392 0
292 -392 0
293 -392 0
294 -392 0
295 -392 0
296 -392 0
297 -392 0
298 -392 0
299 -392 0
-33 -289 -290 -291 -292 -293 -294 -295 -296 -297 -298 -299 392 0
305 -393 0
290 -393 0
291 -393 0
292 -393 0
293 -393 0
294 -393 0
295 -393 0
296 -393 0
297 -393 0
298 -393 0
299 -393 0
-305 -290 -291 -292 -293 -294 -295 -296 -297 -298 -299 393 0
306 -394 0
291 -394 0
292 -394 0
293 -394 0
294 -394 0
295 -394 0
296 -394 0
297 -394 0
298 -394 0
299 -394 0
-306 -291 -292 -293 -294 -295 -296 -297 -298 -299 394 0
307 -395 0
292 -395 0
293 -395 0
294 -395 0
295 -395 0
296 -395 0
297 -395 0
298 -395 0
299 -395 0
-307 -292 -293 -294 -295 -296 -297 -298 -299 395 0
308 -396 0
293 -396 0
294 -396 0
295 -396 0
296 -396 0
297 -396 0
298 -396 0
299 -396 0
-308 -293 -294 -295 -296 -297 -298 -299 396 0
309 -397 0
294 -397 0
295 -397 0
296 -397 0
297 -397 0
298 -397 0
299 -397 0
-309 -294 -295 -296 -297 -298 -299 397 0
310 -398 0
295 -398 0
296 -398 0
297 -398 0
298 -398 0
299 -398 0
-310 -295 -296 -297 -298 -299 398 0
311 -399 0
296 -399 0
297 -399 0
298 -399 0
299 -399 0
-311 -296 -297 -298 -299 399 0
312 -400 0
297 -400 0
298 -400 0
299 -400 0
-312 -297 -298 -299 400 0
313 -401 0
298 -401 0
299 -401 0
-313 -298 -299 401 0
314 -402 0
299 -402 0
-314 -299 402 0
33 -403 0
289 -403 0
290 -403 0
291 -403 0
292 -403 0
293 -403 0
294 -403 0
295 -403 0
296 -403 0
297 -403 0
298 -403 0
299 -403 0
300 -403 0
-33 -289 -290 -291 -292 -293 -294 -295 -296 -297 -298 -299 -300 403 0
305 -404 0
290 -404 0
291 -404 0
292 -404 0
293 -404 0
294 -404 0
295 -404 0
296 -404 0
297 -404 0
298 -404 0
299 -404 0
300 -404 0
-305 -290 -291 -292 -293 -294 -295 -296 -297 -298 -299 -300 404 0
306 -405 0
291 -405 0
292 -405 0
293 -405 0
294 -405 0
295 -405 0
296 -405 0
297 -405 0
298 -405 0
299 -405 0
300 -405 0
-306 -291 -292 -293 -294 -295 -296 -297 -298 -299 -300 405 0
307 -406 0
292 -406 0
293 -406 0
294 -406 0
295 -406 0
296 -406 0
297 -406 0
298 -406 0
299 -406 0
300 -406 0
-307 -292 -293 -294 -295 -296 -297 -298 -299 -300 406 0
308 -407 0
293 -407 0
294 -407 0
295 -407 0
296 -407 0
297 -407 0
298 -407 0
299 -407 0
300 -407 0
-308 -293 -294 -295 -296 -297 -298 -299 -300 407 0
309 -408 0
294 -408 0
295 -408 0
296 -408 0
297 -408 0
298 -408 0
299 -408 0
300 -408 0
-309 -294 -295 -296 -297 -298 -299 -300 408 0
310 -409 0
295 -409 0
296 -409 0
297 -409 0
298 -409 0
299 -409 0
300 -409 0
-310 -295 -296 -297 -298 -299 -300 409 0
311 -410 0
296 -410 0
297 -410 0
298 -410 0
299 -410 0
300 -410 0
-311 -296 -297 -298 -299 -300 410 0
312 -411 0
297 -411 0
298 -411 0
299 -411 0
300 -411 0
-312 -297 -298 -299 -300 411 0
313 -412 0
298 -412 0
299 -412 0
300 -412 0
-313 -298 -299 -300 412 0
314 -413 0
299 -413 0
300 -413 0
-314 -299 -300 413 0
315 -414 0
300 -414 0
-315 -300 414 0
33 -415 0
289 -415 0
290 -415 0
291 -415 0
292 -415 0
293 -415 0
294 -415 0
295 -415 0
296 -415 0
297 -415 0
298 -415 0
299 -415 0
300 -415 0
301 -415 0
-33 -289 -290 -291 -292 -293 -294 -295 -296 -297 -298 -299 -300 -301 415 0
305 -416 0
290 -416 0
291 -416 0
292 -416 0
293 -416 0
294 -416 0
295 -416 0
296 -416 0
297 -416 0
298 -416 0
299 -416 0
300 -416 0
301 -416 0
-305 -290 -291 -292 -293 -294 -295 -296 -297 -298 -299 -300 -301 416 0
306 -417 0
291 -417 0
292 -417 0
293 -417 0
294 -417 0
295 -417 0
296 -417 0
297 -417 0
298 -417 0
299 -417 0
300 -417 0
301 -417 0
-306 -291 -292 -293 -294 -295 -296 -297 -298 -299 -300 -301 417 0
307 -418 0
292 -418 0
293 -418 0
294 -418 0
295 -418 0
296 -418 0
297 -418 0
298 -418 0
299 -418 0
300 -418 0
301 -418 0
-307 -292 -293 -294 -295 -296 -297 -298 -299 -300 -301 418 0
308 -419 0
293 -419 0
294 -419 0
295 -419 0
296 -419 0
297 -419 0
298 -419 0
299 -419 0
300 -419 0
301 -419 0
-308 -293 -294 -295 -296 -297 -298 -299 -300 -301 419 0
309 -420 0
294 -420 0
295 -420 0
296 -420 0
297 -420 0
298 -420 0
299 -420 0
300 -420 0
301 -420 0
-309 -294 -295 -296 -297 -298 -299 -300 -301 420 0
310 -421 0
295 -421 0
296 -421 0
297 -421 0
298 -421 0
299 -421 0
300 -421 0
301 -421 0
-310 -295 -296 -297 -298 -299 -300 -301 421 0
311 -422 0
296 -422 0
297 -422 0
298 -422 0
299 -422 0
300 -422 0
301 -422 0
-311 -296 -297 -298 -299 -300 -301 422 0
312 -423 0
297 -423 0
298 -423 0
299 -423 0
300 -423 0
301 -423 0
-312 -297 -298 -299 -300 -301 423 0
313 -424 0
298 -424 0
299 -424 0
300 -424 0
301 -424 0
-313 -298 -299 -300 -301 424 0
314 -425 0
299 -425 0
300 -425 0
301 -425 0
-314 -299 -300 -301 425 0
315 -426 0
300 -426 0
301 -426 0
-315 -300 -301 426 0
316 -427 0
301 -427 0
-316 -301 427 0
33 -428 0
289 -428 0
290 -428 0
291 -428 0
292 -428 0
293 -428 0
294 -428 0
295 -428 0
296 -428 0
297 -428 0
298 -428 0
299 -428 0
300 -428 0
301 -428 0
302 -428 0
-33 -289 -290 -291 -292 -293 -294 -295 -296 -297 -298 -299 -300 -301 -302 428 0
305 -429 0
290 -429 0
291 -429 0
292 -429 0
293 -429 0
294 -429 0
295 -429 0
296 -429 0
297 -429 0
298 -429 0
299 -429 0
300 -429 0
301 -429 0
302 -429 0
-305 -290 -291 -292 -293 -294 -295 -296 -297 -298 -299 -300 -301 -302 429 0
306 -430 0
291 -430 0
292 -430 0
293 -430 0
294 -430 0
295 -430 0
296 -430 0
297 -430 0
298 -430 0
299 -430 0
300 -430 0
301 -430 0
302 -430 0
-306 -291 -292 -293 -294 -295 -296 -297 -298 -299 -300 -301 -302 430 0
307 -431 0
292 -431 0
293 -431 0
294 -431 0
295 -431 0
296 -431 0
297 -431 0
298 -431 0
299 -431 0
300 -431 0
301 -431 0
302 -431 0
-307 -292 -293 -294 -295 -296 -297 -298 -299 -300 -301 -302 431 0
308 -432 0
293 -432 0
294 -432 0
295 -432 0
296 -432 0
297 -432 0
298 -432 0
299 -432 0
300 -432 0
301 -432 0
302 -432 0
-308 -293 -294 -295 -296 -297 -298 -299 -300 -301 -302 432 0
309 -433 0
294 -433 0
295 -433 0
296 -433 0
297 -433 0
298 -433 0
299 -433 0
300 -433 0
301 -433 0
302 -433 0
-309 -294 -295 -296 -297 -298 -299 -300 -301 -302 433 0
310 -434 0
295 -434 0
296 -434 0
297 -434 0
298 -434 0
299 -434 0
300 -434 0
301 -434 0
302 -434 0
-310 -295 -296 -297 -298 -299 -300 -301 -302 434 0
311 -435 0
296 -435 0
297 -435 0
298 -435 0
299 -435 0
300 -435 0
301 -435 0
302 -435 0
-311 -296 -297 -298 -299 -300 -301 -302 435 0
312 -436 0
297 -436 0
298 -436 0
299 -436 0
300 -436 0
301 -436 0
302 -436 0
-312 -297 -298 -299 -300 -301 -302 436 0
313 -437 0
298 -437 0
299 -437 0
300 -437 0
301 -437 0
302 -437 0
-313 -298 -299 -300 -301 -302 437 0
314 -438 0
299 -438 0
300 -438 0
301 -438 0
302 -438 0
-314 -299 -300 -301 -302 438 0
315 -439 0
300 -439 0
301 -439 0
302 -439 0
-315 -300 -301 -302 439 0
316 -440 0
301 -440 0
302 -440 0
-316 -301 -302 440 0
317 -441 0
302 -441 0
-317 -302 441 0
33 -442 0
289 -442 0
290 -442 0
291 -442 0
292 -442 0
293 -442 0
294 -442 0
295 -442 0
296 -442 0
297 -442 0
298 -442 0
299 -442 0
300 -442 0
301 -442 0
302 -442 0
303 -442 0
-33 -289 -290 -291 -292 -293 -294 -295 -296 -297 -298 -299 -300 -301 -302 -303 442 0
305 -443 0
290 -443 0
291 -443 0
292 -443 0
293 -443 0
294 -443 0
295 -443 0
296 -443 0
297 -443 0
298 -443 0
299 -443 0
300 -443 0
301 -443 0
302 -443 0
303 -443 0
-305 -290 -291 -292 -293 -294 -295 -296 -297 -298 -299 -300 -301 -302 -303 443 0
306 -444 0
291 -444 0
292 -444 0
293 -444 0
294 -444 0
295 -444 0
296 -444 0
297 -444 0
298 -444 0
299 -444 0
300 -444 0
301 -444 0
302 -444 0
303 -444 0
-306 -291 -292 -293 -294 -295 -296 -297 -298 -299 -300 -301 -302 -303 444 0
307 -445 0
292 -445 0
293 -445 0
294 -445 0
295 -445 0
296 -445 0
297 -445 0
298 -445 0
299 -445 0
300 -445 0
301 -445 0
302 -445 0
303 -445 0
-307 -292 -293 -294 -295 -296 -297 -298 -299 -300 -301 -302 -303 445 0
308 -446 0
293 -446 0
294 -446 0
295 -446 0
296 -446 0
297 -446 0
298 -446 0
299 -446 0
300 -446 0
301 -446 0
302 -446 0
303 -446 0
-308 -293 -294 -295 -296 -297 -298 -299 -300 -301 -302 -303 446 0
309 -447 0
294 -447 0
295 -447 0
296 -447 0
297 -447 0
298 -447 0
299 -447 0
300 -447 0
301 -447 0
302 -447 0
303 -447 0
-309 -294 -295 -296 -297 -298 -299 -300 -301 -302 -303 447 0
310 -448 0
295 -448 0
296 -448 0
297 -448 0
298 -448 0
299 -448 0
300 -448 0
301 -448 0
302 -448 0
303 -448 0
-310 -295 -296 -297 -298 -299 -300 -301 -302 -303 448 0
311 -449 0
296 -449 0
297 -449 0
298 -449 0
299 -449 0
300 -449 0
301 -449 0
302 -449 0
303 -449 0
-311 -296 -297 -298 -299 -300 -301 -302 -303 449 0
312 -450 0
297 -450 0
298 -450 0
299 -450 0
300 -450 0
301 -450 0
302 -450 0
303 -450 0
-312 -297 -298 -299 -300 -301 -302 -303 450 0
313 -451 0
298 -451 0
299 -451 0
300 -451 0
301 -451 0
302 -451 0
303 -451 0
-313 -298 -299 -300 -301 -302 -303 451 0
314 -452 0
299 -452 0
300 -452 0
301 -452 0
302 -452 0
303 -452 0
-314 -299 -300 -301 -302 -303 452 0
315 -453 0
300 -453 0
301 -453 0
302 -453 0
303 -453 0
-315 -300 -301 -302 -303 453 0
316 -454 0
301 -454 0
302 -454 0
303 -454 0
-316 -301 -302 -303 454 0
317 -455 0
302 -455 0
303 -455 0
-317 -302 -303 455 0
318 -456 0
303 -456 0
-318 -303 456 0
33 -457 0
289 -457 0
290 -457 0
291 -457 0
292 -457 0
293 -457 0
294 -457 0
295 -457 0
296 -457 0
297 -457 0
298 -457 0
299 -457 0
300 -457 0
301 -457 0
302 -457 0
303 -457 0
304 -457 0
-33 -289 -290 -291 -292 -293 -294 -295 -296 -297 -298 -299 -300 -301 -302 -303 -304 457 0
305 -458 0
290 -458 0
291 -458 0
292 -458 0
293 -458 0
294 -458 0
295 -458 0
296 -458 0
297 -458 0
298 -458 0
299 -458 0
300 -458 0
301 -458 0
302 -458 0
303 -458 0
304 -458 0
-305 -290 -291 -292 -293 -294 -295 -296 -297 -298 -299 -300 -301 -302 -303 -304 458 0
306 -459 0
291 -459 0
292 -459 0
293 -459 0
294 -459 0
295 -459 0
296 -459 0
297 -459 0
298 -459 0
299 -459 0
300 -459 0
301 -459 0
302 -459 0
303 -459 0
304 -459 0
-306 -291 -292 -293 -294 -295 -296 -297 -298 -299 -300 -301 -302 -303 -304 459 0
307 -460 0
292 -460 0
293 -460 0
294 -460 0
295 -460 0
296 -460 0
297 -460 0
298 -460 0
299 -460 0
300 -460 0
301 -460 0
302 -460 0
303 -460 0
304 -460 0
-307 -292 -293 -294 -295 -296 -297 -298 -299 -300 -301 -302 -303 -304 460 0
308 -461 0
293 -461 0
294 -461 0
295 -461 0
296 -461 0
297 -461 0
298 -461 0
299 -461 0
300 -461 0
301 -461 0
302 -461 0
303 -461 0
304 -461 0
-308 -293 -294 -295 -296 -297 -298 -299 -300 -301 -302 -303 -304 461 0
309 -462 0
294 -462 0
295 -462 0
296 -462 0
297 -462 0
298 -462 0
299 -462 0
300 -462 0
301 -462 0
302 -462 0
303 -462 0
304 -462 0
-309 -294 -295 -296 -297 -298 -299 -300 -301 -302 -303 -304 462 0
310 -463 0
295 -463 0
296 -463 0
297 -463 0
298 -463 0
299 -463 0
300 -463 0
301 -463 0
302 -463 0
303 -463 0
304 -463 0
-310 -295 -296 -297 -298 -299 -300 -301 -302 -303 -304 463 0
311 -464 0
296 -464 0
297 -464 0
298 -464 0
299 -464 0
300 -464 0
301 -464 0
302 -464 0
303 -464 0
304 -464 0
-311 -296 -297 -298 -299 -300 -301 -302 -303 -304 464 0
312 -465 0
297 -465 0
298 -465 0
299 -465 0
300 -465 0
301 -465 0
302 -465 0
303 -465 0
304 -465 0
-312 -297 -298 -299 -300 -301 -302 -303 -304 465 0
313 -466 0
298 -466 0
299 -466 0
300 -466 0
301 -466 0
302 -466 0
303 -466 0
304 -466 0
-313 -298 -299 -300 -301 -302 -303 -304 466 0
314 -467 0
299 -467 0
300 -467 0
301 -467 0
302 -467 0
303 -467 0
304 -467 0
-314 -299 -300 -301 -302 -303 -304 467 0
315 -468 0
300 -468 0
301 -468 0
302 -468 0
303 -468 0
304 -468 0
-315 -300 -301 -302 -303 -304 468 0
316 -469 0
301 -469 0
302 -469 0
303 -469 0
304 -469 0
-316 -301 -302 -303 -304 469 0
317 -470 0
302 -470 0
303 -470 0
304 -470 0
-317 -302 -303 -304 470 0
318 -471 0
303 -471 0
304 -471 0
-318 -303 -304 471 0
319 -472 0
304 -472 0
-319 -304 472 0
-305 321 0
-337 321 0
305 337 -321 0
-306 322 0
-338 322 0
-339 322 0
306 338 339 -322 0
-307 323 0
-340 323 0
-341 323 0
-342 323 0
307 340 341 342 -323 0
-308 324 0
-343 324 0
-344 324 0
-345 324 0
-346 324 0
308 343 344 345 346 -324 0
-309 325 0
-347 325 0
-348 325 0
-349 325 0
-350 325 0
-351 325 0
309 347 348 349 350 351 -325 0
-310 326 0
-352 326 0
-353 326 0
-354 326 0
-355 326 0
-356 326 0
-357 326 0
310 352 353 354 355 356 357 -326 0
-311 327 0
-358 327 0
-359 327 0
-360 327 0
-361 327 0
-362 327 0
-363 327 0
-364 327 0
311 358 359 360 361 362 363 364 -327 0
-312 328 0
-365 328 0
-366 328 0
-367 328 0
-368 328 0
-369 328 0
-370 328 0
-371 328 0
-372 328 0
312 365 366 367 368 369 370 371 372 -328 0
-313 329 0
-373 329 0
-374 329 0
-375 329 0
-376 329 0
-377 329 0
-378 329 0
-379 329 0
-380 329 0
-381 329 0
313 373 374 375 376 377 378 379 380 381 -329 0
-314 330 0
-382 330 0
-383 330 0
-384 330 0
-385 330 0
-386 330 0
-387 330 0
-388 330 0
-389 330 0
-390 330 0
-391 330 0
314 382 383 384 385 386 387 388 389 390 391 -330 0
-315 331 0
-392 331 0
-393 331 0
-394 331 0
-395 331 0
-396 331 0
-397 331 0
-398 331 0
-399 331 0
-400 331 0
-401 331 0
-402 331 0
315 392 393 394 395 396 397 398 399 400 401 402 -331 0
-316 332 0
-403 332 0
-404 332 0
-405 332 0
-406 332 0
-407 332 0
-408 332 0
-409 332 0
-410 332 0
-411 332 0
-412 332 0
-413 332 0
-414 332 0
316 403 404 405 406 407 408 409 410 411 412 413 414 -332 0
-317 333 0
-415 333 0
-416 333 0
-417 333 0
-418 333 0
-419 333 0
-420 333 0
-421 333 0
-422 333 0
-423 333 0
-424 333 0
-425 333 0
-426 333 0
-427 333 0
317 415 416 417 418 419 420 421 422 423 424 425 426 427 -333 0
-318 334 0
-428 334 0
-429 334 0
-430 334 0
-431 334 0
-432 334 0
-433 334 0
-434 334 0
-435 334 0
-436 334 0
-437 334 0
-438 334 0
-439 334 0
-440 334 0
-441 334 0
318 428 429 430 431 432 433 434 435 436 437 438 439 440 441 -334 0
-319 335 0
-442 335 0
-443 335 0
-444 335 0
-445 335 0
-446 335 0
-447 335 0
-448 335 0
-449 335 0
-450 335 0
-451 335 0
-452 335 0
-453 335 0
-454 335 0
-455 335 0
-456 335 0
319 442 443 444 445 446 447 448 449 450 451 452 453 454 455 456 -335 0
-320 336 0
-457 336 0
-458 336 0
-459 336 0
-460 336 0
-461 336 0
-462 336 0
-463 336 0
-464 336 0
-465 336 0
-466 336 0
-467 336 0
-468 336 0
-469 336 0
-470 336 0
-471 336 0
-472 336 0
320 457 458 459 460 461 462 463 464 465 466 467 468 469 470 471 472 -336 0
289 33 -17 0
-289 33 17 0
289 -33 17 0
-289 -33 -17 0
290 321 -18 0
-290 321 18 0
290 -321 18 0
-290 -321 -18 0
291 322 -19 0
-291 322 19 0
291 -322 19 0
-291 -322 -19 0
292 323 -20 0
-292 323 20 0
292 -323 20 0
-292 -323 -20 0
293 324 -21 0
-293 324 21 0
293 -324 21 0
-293 -324 -21 0
294 325 -22 0
-294 325 22 0
294 -325 22 0
-294 -325 -22 0
295 326 -23 0
-295 326 23 0
295 -326 23 0
-295 -326 -23 0
296 327 -24 0
-296 327 24 0
296 -327 24 0
-296 -327 -24 0
297 328 -25 0
-297 328 25 0
297 -328 25 0
-297 -328 -25 0
298 329 -26 0
-298 329 26 0
298 -329 26 0
-298 -329 -26 0
299 330 -27 0
-299 330 27 0
299 -330 27 0
-299 -330 -27 0
300 331 -28 0
-300 331 28 0
300 -331 28 0
-300 -331 -28 0
301 332 -29 0
-301 332 29 0
301 -332 29 0
-301 -332 -29 0
302 333 -30 0
-302 333 30 0
302 -333 30 0
-302 -333 -30 0
303 334 -31 0
-303 334 31 0
303 -334 31 0
-303 -334 -31 0
304 335 -32 0
-304 335 32 0
304 -335 32 0
-304 -335 -32 0
336 -288 0
-336 288 0
1 -35 0
9 -35 0
-1 -9 35 0
2 -36 0
9 -36 0
-2 -9 36 0
3 -37 0
9 -37 0
-3 -9 37 0
4 -38 0
9 -38 0
-4 -9 38 0
5 -39 0
9 -39 0
-5 -9 39 0
6 -40 0
9 -40 0
-6 -9 40 0
7 -41 0
9 -41 0
-7 -9 41 0
8 -42 0
9 -42 0
-8 -9 42 0
1 -43 0
10 -43 0
-1 -10 43 0
2 -44 0
10 -44 0
-2 -10 44 0
3 -45 0
10 -45 0
-3 -10 45 0
4 -46 0
10 -46 0
-4 -10 46 0
5 -47 0
10 -47 0
-5 -10 47 0
6 -48 0
10 -48 0
-6 -10 48 0
7 -49 0
10 -49 0
-7 -10 49 0
8 -50 0
10 -50 0
-8 -10 50 0
1 -51 0
11 -51 0
-1 -11 51 0
2 -52 0
11 -52 0
-2 -11 52 0
3 -53 0
11 -53 0
-3 -11 53 0
4 -54 0
11 -54 0
-4 -11 54 0
5 -55 0
11 -55 0
-5 -11 55 0
6 -56 0
11 -56 0
-6 -11 56 0
7 -57 0
11 -57 0
-7 -11 57 0
8 -58 0
11 -58 0
-8 -11 58 0
1 -59 0
12 -59 0
-1 -12 59 0
2 -60 0
12 -60 0
-2 -12 60 0
3 -61 0
12 -61 0
-3 -12 61 0
4 -62 0
12 -62 0
-4 -12 62 0
5 -63 0
12 -63 0
-5 -12 63 0
6 -64 0
12 -64 0
-6 -12 64 0
7 -65 0
12 -65 0
-7 -12 65 0
8 -66 0
12 -66 0
-8 -12 66 0
1 -67 0
13 -67 0
-1 -13 67 0
2 -68 0
13 -68 0
-2 -13 68 0
3 -69 0
13 -69 0
-3 -13 69 0
4 -70 0
13 -70 0
-4 -13 70 0
5 -71 0
13 -71 0
-5 -13 71 0
6 -72 0
13 -72 0
-6 -13 72 0
7 -73 0
13 -73 0
-7 -13 73 0
8 -74 0
13 -74 0
-8 -13 74 0
1 -75 0
14 -75 0
-1 -14 75 0
2 -76 0
14 -76 0
-2 -14 76 0
3 -77 0
14 -77 0
-3 -14 77 0
4 -78 0
14 -78 0
-4 -14 78 0
5 -79 0
14 -79 0
-5 -14 79 0
6 -80 0
14 -80 0
-6 -14 80 0
7 -81 0
14 -81 0
-7 -14 81 0
8 -82 0
14 -82 0
-8 -14 82 0
1 -83 0
15 -83 0
-1 -15 83 0
2 -84 0
15 -84 0
-2 -15 84 0
3 -85 0
15 -85 0
-3 -15 85 0
4 -86 0
15 -86 0
-4 -15 86 0
5 -87 0
15 -87 0
-5 -15 87 0
6 -88 0
15 -88 0
-6 -15 88 0
7 -89 0
15 -89 0
-7 -15 89 0
8 -90 0
15 -90 0
-8 -15 90 0
1 -91 0
16 -91 0
-1 -16 91 0
2 -92 0
16 -92 0
-2 -16 92 0
3 -93 0
16 -93 0
-3 -16 93 0
4 -94 0
16 -94 0
-4 -16 94 0
5 -95 0
16 -95 0
-5 -16 95 0
6 -96 0
16 -96 0
-6 -16 96 0
7 -97 0
16 -97 0
-7 -16 97 0
8 -98 0
16 -98 0
-8 -16 98 0
41 48 -99 0
-41 48 99 0
41 -48 99 0
-41 -48 -99 0
41 -100 0
48 -100 0
-41 -48 100 0
42 49 -103 0
-42 49 103 0
42 -49 103 0
-42 -49 -103 0
103 56 -101 0
-103 56 101 0
103 -56 101 0
-103 -56 -101 0
56 -104 0
103 -104 0
-56 -103 104 0
49 -105 0
42 -105 0
-49 -42 105 0
-104 102 0
-105 102 0
104 105 -102 0
63 70 -106 0
-63 70 106 0
63 -70 106 0
-63 -70 -106 0
63 -107 0
70 -107 0
-63 -70 107 0
50 57 -110 0
-50 57 110 0
50 -57 110 0
-50 -57 -110 0
110 64 -108 0
-110 64 108 0
110 -64 108 0
-110 -64 -108 0
64 -111 0
110 -111 0
-64 -110 111 0
57 -112 0
50 -112 0
-57 -50 112 0
-111 109 0
-112 109 0
111 112 -109 0
71 78 -113 0
-71 78 113 0
71 -78 113 0
-71 -78 -113 0
71 -114 0
78 -114 0
-71 -78 114 0
58 65 -117 0
-58 65 117 0
58 -65 117 0
-58 -65 -117 0
117 72 -115 0
-117 72 115 0
117 -72 115 0
-117 -72 -115 0
72 -118 0
117 -118 0
-72 -117 118 0
65 -119 0
58 -119 0
-65 -58 119 0
-118 116 0
-119 116 0
118 119 -116 0
39 46 -120 0
-39 46 120 0
39 -46 120 0
-39 -46 -120 0
39 -121 0
46 -121 0
-39 -46 121 0
40 47 -124 0
-40 47 124 0
40 -47 124 0
-40 -47 -124 0
124 54 -122 0
-124 54 122 0
124 -54 122 0
-124 -54 -122 0
54 -125 0
124 -125 0
-54 -124 125 0
47 -126 0
40 -126 0
-47 -40 126 0
-125 123 0
-126 123 0
125 126 -123 0
61 68 -127 0
-61 68 127 0
61 -68 127 0
-61 -68 -127 0
61 -128 0
68 -128 0
-61 -68 128 0
99 55 -131 0
-99 55 131 0
99 -55 131 0
-99 -55 -131 0
131 62 -129 0
-131 62 129 0
131 -62 129 0
-131 -62 -129 0
62 -132 0
131 -132 0
-62 -131 132 0
55 -133 0
99 -133 0
-55 -99 133 0
-132 130 0
-133 130 0
132 133 -130 0
69 76 -136 0
-69 76 136 0
69 -76 136 0
-69 -76 -136 0
136 83 -134 0
-136 83 134 0
136 -83 134 0
-136 -83 -134 0
83 -137 0
136 -137 0
-83 -136 137 0
76 -138 0
69 -138 0
-76 -69 138 0
-137 135 0
-138 135 0
137 138 -135 0
100 101 -141 0
-100 101 141 0
100 -101 141 0
-100 -101 -141 0
141 106 -139 0
-141 106 139 0
141 -106 139 0
-141 -106 -139 0
106 -142 0
141 -142 0
-106 -141 142 0
101 -143 0
100 -143 0
-101 -100 143 0
-142 140 0
-143 140 0
142 143 -140 0
77 84 -146 0
-77 84 146 0
77 -84 146 0
-77 -84 -146 0
146 91 -144 0
-146 91 144 0
146 -91 144 0
-146 -91 -144 0
91 -147 0
146 -147 0
-91 -146 147 0
84 -148 0
77 -148 0
-84 -77 148 0
-147 145 0
-148 145 0
147 148 -145 0
102 107 -151 0
-102 107 151 0
102 -107 151 0
-102 -107 -151 0
151 108 -149 0
-151 108 149 0
151 -108 149 0
-151 -108 -149 0
108 -152 0
151 -152 0
-108 -151 152 0
107 -153 0
102 -153 0
-107 -102 153 0
-152 150 0
-153 150 0
152 153 -150 0
113 85 -156 0
-113 85 156 0
113 -85 156 0
-113 -85 -156 0
156 92 -154 0
-156 92 154 0
156 -92 154 0
-156 -92 -154 0
92 -157 0
156 -157 0
-92 -156 157 0
85 -158 0
113 -158 0
-85 -113 158 0
-157 155 0
-158 155 0
157 158 -155 0
109 114 -161 0
-109 114 161 0
109 -114 161 0
-109 -114 -161 0
161 115 -159 0
-161 115 159 0
161 -115 159 0
-161 -115 -159 0
115 -162 0
161 -162 0
-115 -161 162 0
114 -163 0
109 -163 0
-114 -109 163 0
-162 160 0
-163 160 0
162 163 -160 0
79 86 -166 0
-79 86 166 0
79 -86 166 0
-79 -86 -166 0
166 93 -164 0
-166 93 164 0
166 -93 164 0
-166 -93 -164 0
93 -167 0
166 -167 0
-93 -166 167 0
86 -168 0
79 -168 0
-86 -79 168 0
-167 165 0
-168 165 0
167 168 -165 0
116 66 -171 0
-116 66 171 0
116 -66 171 0
-116 -66 -171 0
171 73 -169 0
-171 73 169 0
171 -73 169 0
-171 -73 -169 0
73 -172 0
171 -172 0
-73 -171 172 0
66 -173 0
116 -173 0
-66 -116 173 0
-172 170 0
-173 170 0
172 173 -170 0
80 87 -176 0
-80 87 176 0
80 -87 176 0
-80 -87 -176 0
176 94 -174 0
-176 94 174 0
176 -94 174 0
-176 -94 -174 0
94 -177 0
176 -177 0
-94 -176 177 0
87 -178 0
80 -178 0
-87 -80 178 0
-177 175 0
-178 175 0
177 178 -175 0
74 81 -181 0
-74 81 181 0
74 -81 181 0
-74 -81 -181 0
181 88 -179 0
-181 88 179 0
181 -88 179 0
-181 -88 -179 0
88 -182 0
181 -182 0
-88 -181 182 0
81 -183 0
74 -183 0
-81 -74 183 0
-182 180 0
-183 180 0
182 183 -180 0
38 45 -184 0
-38 45 184 0
38 -45 184 0
-38 -45 -184 0
38 -185 0
45 -185 0
-38 -45 185 0
120 53 -188 0
-120 53 188 0
120 -53 188 0
-120 -53 -188 0
188 60 -186 0
-188 60 186 0
188 -60 186 0
-188 -60 -186 0
60 -189 0
188 -189 0
-60 -188 189 0
53 -190 0
120 -190 0
-53 -120 190 0
-189 187 0
-190 187 0
189 190 -187 0
121 122 -193 0
-121 122 193 0
121 -122 193 0
-121 -122 -193 0
193 127 -191 0
-193 127 191 0
193 -127 191 0
-193 -127 -191 0
127 -194 0
193 -194 0
-127 -193 194 0
122 -195 0
121 -195 0
-122 -121 195 0
-194 192 0
-195 192 0
194 195 -192 0
123 128 -198 0
-123 128 198 0
123 -128 198 0
-123 -128 -198 0
198 129 -196 0
-198 129 196 0
198 -129 196 0
-198 -129 -196 0
129 -199 0
198 -199 0
-129 -198 199 0
128 -200 0
123 -200 0
-128 -123 200 0
-199 197 0
-200 197 0
199 200 -197 0
130 135 -203 0
-130 135 203 0
130 -135 203 0
-130 -135 -203 0
203 139 -201 0
-203 139 201 0
203 -139 201 0
-203 -139 -201 0
139 -204 0
203 -204 0
-139 -203 204 0
135 -205 0
130 -205 0
-135 -130 205 0
-204 202 0
-205 202 0
204 205 -202 0
140 145 -208 0
-140 145 208 0
140 -145 208 0
-140 -145 -208 0
208 149 -206 0
-208 149 206 0
208 -149 206 0
-208 -149 -206 0
149 -209 0
208 -209 0
-149 -208 209 0
145 -210 0
140 -210 0
-145 -140 210 0
-209 207 0
-210 207 0
209 210 -207 0
150 155 -213 0
-150 155 213 0
150 -155 213 0
-150 -155 -213 0
213 159 -211 0
-213 159 211 0
213 -159 211 0
-213 -159 -211 0
159 -214 0
213 -214 0
-159 -213 214 0
155 -215 0
150 -215 0
-155 -150 215 0
-214 212 0
-215 212 0
214 215 -212 0
160 165 -218 0
-160 165 218 0
160 -165 218 0
-160 -165 -218 0
218 169 -216 0
-218 169 216 0
218 -169 216 0
-218 -169 -216 0
169 -219 0
218 -219 0
-169 -218 219 0
165 -220 0
160 -220 0
-165 -160 220 0
-219 217 0
-220 217 0
219 220 -217 0
170 175 -223 0
-170 175 223 0
170 -175 223 0
-170 -175 -223 0
223 179 -221 0
-223 179 221 0
223 -179 221 0
-223 -179 -221 0
179 -224 0
223 -224 0
-179 -223 224 0
175 -225 0
170 -225 0
-175 -170 225 0
-224 222 0
-225 222 0
224 225 -222 0
180 82 -228 0
-180 82 228 0
180 -82 228 0
-180 -82 -228 0
228 89 -226 0
-228 89 226 0
228 -89 226 0
-228 -89 -226 0
89 -229 0
228 -229 0
-89 -228 229 0
82 -230 0
180 -230 0
-82 -180 230 0
-229 227 0
-230 227 0
229 230 -227 0
37 44 -231 0
-37 44 231 0
37 -44 231 0
-37 -44 -231 0
37 -232 0
44 -232 0
-37 -44 232 0
184 52 -235 0
-184 52 235 0
184 -52 235 0
-184 -52 -235 0
235 59 -233 0
-235 59 233 0
235 -59 233 0
-235 -59 -233 0
59 -236 0
235 -236 0
-59 -235 236 0
52 -237 0
184 -237 0
-52 -184 237 0
-236 234 0
-237 234 0
236 237 -234 0
185 186 -240 0
-185 186 240 0
185 -186 240 0
-185 -186 -240 0
240 67 -238 0
-240 67 238 0
240 -67 238 0
-240 -67 -238 0
67 -241 0
240 -241 0
-67 -240 241 0
186 -242 0
185 -242 0
-186 -185 242 0
-241 239 0
-242 239 0
241 242 -239 0
187 191 -245 0
-187 191 245 0
187 -191 245 0
-187 -191 -245 0
245 75 -243 0
-245 75 243 0
245 -75 243 0
-245 -75 -243 0
75 -246 0
245 -246 0
-75 -245 246 0
191 -247 0
187 -247 0
-191 -187 247 0
-246 244 0
-247 244 0
246 247 -244 0
192 196 -250 0
-192 196 250 0
192 -196 250 0
-192 -196 -250 0
250 134 -248 0
-250 134 248 0
250 -134 248 0
-250 -134 -248 0
134 -251 0
250 -251 0
-134 -250 251 0
196 -252 0
192 -252 0
-196 -192 252 0
-251 249 0
-252 249 0
251 252 -249 0
197 201 -255 0
-197 201 255 0
197 -201 255 0
-197 -201 -255 0
255 144 -253 0
-255 144 253 0
255 -144 253 0
-255 -144 -253 0
144 -256 0
255 -256 0
-144 -255 256 0
201 -257 0
197 -257 0
-201 -197 257 0
-256 254 0
-257 254 0
256 257 -254 0
202 206 -260 0
-202 206 260 0
202 -206 260 0
-202 -206 -260 0
260 154 -258 0
-260 154 258 0
260 -154 258 0
-260 -154 -258 0
154 -261 0
260 -261 0
-154 -260 261 0
206 -262 0
202 -262 0
-206 -202 262 0
-261 259 0
-262 259 0
261 262 -259 0
207 211 -265 0
-207 211 265 0
207 -211 265 0
-207 -211 -265 0
265 164 -263 0
-265 164 263 0
265 -164 263 0
-265 -164 -263 0
164 -266 0
265 -266 0
-164 -265 266 0
211 -267 0
207 -267 0
-211 -207 267 0
-266 264 0
-267 264 0
266 267 -264 0
212 216 -270 0
-212 216 270 0
212 -216 270 0
-212 -216 -270 0
270 174 -268 0
-270 174 268 0
270 -174 268 0
-270 -174 -268 0
174 -271 0
270 -271 0
-174 -270 271 0
216 -272 0
212 -272 0
-216 -212 272 0
-271 269 0
-272 269 0
271 272 -269 0
217 221 -275 0
-217 221 275 0
217 -221 275 0
-217 -221 -275 0
275 95 -273 0
-275 95 273 0
275 -95 273 0
-275 -95 -273 0
95 -276 0
275 -276 0
-95 -275 276 0
221 -277 0
217 -277 0
-221 -217 277 0
-276 274 0
-277 274 0
276 277 -274 0
222 226 -280 0
-222 226 280 0
222 -226 280 0
-222 -226 -280 0
280 96 -278 0
-280 96 278 0
280 -96 278 0
-280 -96 -278 0
96 -281 0
280 -281 0
-96 -280 281 0
226 -282 0
222 -282 0
-226 -222 282 0
-281 279 0
-282 279 0
281 282 -279 0
227 90 -285 0
-227 90 285 0
227 -90 285 0
-227 -90 -285 0
285 97 -283 0
-285 97 283 0
285 -97 283 0
-285 -97 -283 0
97 -286 0
285 -286 0
-97 -285 286 0
90 -287 0
227 -287 0
-90 -227 287 0
-286 284 0
-287 284 0
286 287 -284 0
